clingo version 5.6.2
Reading from ...gen_asp_scripts/ijp_expt_cases-1061.dl
Solving...
Progression : [1;inf]
Progression : [2;inf]
Progression : [3;inf]
UNSATISFIABLE

Models       : 0
Bounds       : [3;*]
Calls        : 1
Time         : 0.326s (Solving: 0.14s 1st Model: 0.00s Unsat: 0.14s)
CPU Time     : 1.058s
Threads      : 32       (Winner: 1)
